84
28
0 28 32 34 37 38 40 44 45 46 48 49 53 54 56 57 58 59 60 61 66 68 70 71 72 73 74 75 76 77 78 81
1 28 31 32 36 37 43 44 46 48 49 50 55 57 58 59 61 62 63 64 67 68 70 71 72 73 74 75 76 77 78 79 81
2 28 31 32 34 37 38 40 41 42 44 45 46 48 49 50 51 56 58 59 60 61 63 67 68 70 71 72 73 75 77 78 81
3 28 29 30 32 34 36 37 40 44 45 46 48 49 50 55 58 59 60 61 63 67 70 71 74 77 78
4 28 32 35 37 41 42 43 44 45 49 51 56 59 60 61 67 68 70 71 76 78 81
5 28 29 31 37 44 45 46 51 56 58 59 60 61 62 64 65 67 68 69 70 75 76 77 78 81
6 30 32 35 36 37 41 44 45 48 49 51 55 57 58 59 60 61 63 66 67 68 71 72 74 75 76 77 78 79 81
7 28 32 34 35 36 37 41 46 47 49 51 53 57 61 63 67 68 69 70 72 73 75 76 77 78
8 28 29 37 40 41 44 45 46 49 50 56 59 63 64 67 69 71 72 77 80 81
9 29 35 37 42 46 49 50 56 57 58 60 62 63 67 69 70 72 73 75 76 78 81
10 29 32 36 38 41 44 45 46 47 48 49 51 52 53 58 59 61 63 68 69 70 71 72 75 77 79 80
11 28 30 31 40 42 45 46 49 50 51 54 59 60 61 63 65 66 67 69 70 71 72 73 74 75 76 78 82
12 28 29 36 40 41 42 44 48 50 51 54 55 58 59 60 64 67 68 73 77 81 82
13 28 29 30 32 35 36 37 41 44 45 46 49 51 55 56 57 58 60 62 69 71 72 74 75 76 77 78 81
14 28 29 30 32 33 36 37 40 41 45 48 50 53 56 58 61 69 74 75 77 83
15 29 38 39 40 41 48 53 69 70 72 73 74 76 77 79
16 28 29 31 32 34 35 36 49 55 57 60 61 64 71 73 75 78 79 80 82
17 28 30 34 38 42 51 55 56 59 60 63 66 70 71 75 78 81 82
18 30 31 33 34 37 40 46 48 49 56 61 65 67 69 73 74 76 77
19 28 33 39 48 50 55 56 63 67 74 75 76 78
20 32 33 34 40 41 44 45 48 54 58 59 61 64 66 69 71 79
21 34 37 38 45 62 70 76 79 81
22 32 33 35 38 39 41 42 44 45 59 64 68 74 77 82
23 28 29 32 35 36 37 38 51 57 62 63 65 66 72 73 76
24 28 29 34 55 77 81
25 29 30 40 41 52 58
26 44 55 67 78
27 55 61 68 69
